p tw 273 494
1 215
1 216
1 259
1 260
2 177
2 178
2 234
2 235
3 41
3 119
3 120
3 211
3 212
4 224
4 267
4 268
5 90
5 91
5 148
5 149
6 87
6 88
6 176
6 177
7 201
7 202
7 252
7 253
8 102
8 183
8 184
9 34
9 98
9 99
10 208
10 209
10 255
10 256
11 132
11 133
11 222
11 223
11 265
11 266
12 105
12 106
12 240
12 241
13 111
13 112
13 154
13 155
14 167
14 168
14 225
14 226
15 207
15 208
15 254
15 255
16 212
16 213
16 257
17 90
17 180
17 181
17 236
17 237
18 189
18 190
18 244
18 245
19 113
19 114
19 157
19 158
20 69
20 116
20 135
20 161
20 203
21 115
21 116
21 202
21 203
21 253
22 173
22 174
22 230
22 231
23 69
23 121
23 122
24 94
24 95
24 156
24 157
25 178
25 179
25 235
26 89
26 162
26 163
27 200
27 201
27 251
27 252
28 118
28 119
28 136
28 206
28 207
29 141
29 142
29 220
29 221
30 34
30 163
30 164
31 133
31 164
31 165
31 269
31 270
32 171
32 172
32 228
32 229
32 273
33 209
33 210
33 256
34 267
35 214
35 215
35 259
36 81
36 143
36 144
37 104
37 105
37 186
37 187
38 117
38 118
38 205
38 206
39 126
39 127
39 144
39 145
40 81
40 82
40 168
40 169
40 226
40 227
41 257
41 258
42 114
42 115
42 159
42 160
42 199
42 200
43 82
43 83
43 152
43 153
44 193
44 194
44 246
44 247
45 83
45 84
45 153
45 154
46 86
46 87
46 155
46 156
47 182
47 183
47 238
47 239
48 101
48 165
48 166
49 108
49 109
49 191
49 192
50 106
50 107
50 150
50 151
51 88
51 89
51 160
51 161
51 179
52 127
52 128
52 146
52 147
53 65
53 102
53 103
53 184
53 185
54 188
54 189
54 242
54 243
55 92
55 93
55 181
56 175
56 176
56 232
56 233
57 134
57 135
57 166
58 218
58 219
58 263
58 264
59 100
59 101
59 268
59 269
60 109
60 110
60 137
60 138
60 195
60 196
61 84
61 85
61 172
61 173
62 197
62 198
62 249
62 250
63 214
63 260
63 261
64 128
64 129
64 147
64 148
65 142
65 221
66 192
66 193
66 245
66 246
67 130
67 131
67 151
67 152
68 194
68 195
68 247
68 248
69 122
69 135
70 91
70 92
70 237
71 123
71 124
71 216
71 217
71 262
71 263
71 272
71 273
72 125
72 126
72 145
72 146
73 129
73 130
73 149
73 150
74 167
74 224
74 225
75 96
75 97
75 158
75 159
76 169
76 170
76 227
76 228
77 136
77 137
77 270
77 271
78 85
78 86
78 139
78 140
78 174
78 175
78 231
78 232
79 132
79 134
79 162
80 204
80 205
80 254
81 82
82 83
83 84
84 85
85 86
86 87
87 88
88 89
90 91
91 92
92 93
93 94
94 95
95 96
96 97
97 98
98 99
99 100
100 101
102 103
103 104
104 105
105 106
106 107
107 108
108 109
109 110
110 111
111 112
112 113
113 114
114 115
115 116
117 118
117 204
118 119
119 120
120 121
121 122
123 124
123 143
124 125
125 126
126 127
127 128
128 129
129 130
130 131
131 220
132 133
134 135
136 137
137 138
138 139
139 140
140 141
141 142
143 144
144 145
145 146
146 147
147 148
148 149
149 150
150 151
151 152
152 153
153 154
154 155
155 156
156 157
157 158
158 159
159 160
160 161
162 163
163 164
164 165
165 166
167 168
168 169
169 170
170 171
171 172
172 173
173 174
174 175
175 176
176 177
177 178
178 179
180 181
180 236
182 183
182 238
183 184
184 185
185 186
186 187
187 188
188 189
189 190
190 191
191 192
192 193
193 194
194 195
195 196
196 197
197 198
198 199
199 200
200 201
201 202
202 203
204 205
205 206
206 207
207 208
208 209
209 210
210 211
211 212
212 213
213 258
214 215
215 216
216 217
217 218
218 219
219 264
220 221
222 223
222 265
223 266
224 225
225 226
226 227
227 228
228 229
229 230
230 231
231 232
232 233
233 234
234 235
236 237
238 239
239 240
240 241
241 242
242 243
243 244
244 245
245 246
246 247
247 248
248 249
249 250
250 251
251 252
252 253
254 255
255 256
257 258
259 260
260 261
261 262
262 263
263 264
265 266
267 268
268 269
269 270
270 271
271 272
272 273
